NAME          ClpDefau  FREE
ROWS
 N  OBJROW
 L  ZMUNI1_PCT
 L  ZMUNI2_PCT
 L  ZMUNI3_PCT
 L  ZMUNI4_PCT
 L  ZMUNI5_PCT
 L  ZMUNI6_PCT
 L  ZMUNI7_PCT
 L  ZMUNI8_PCT
 L  ZMUNI9_PCT
COLUMNS
    QMUNI1 OBJROW 1.          
    QMUNI1 ZMUNI1_PCT 29332.3517  
    QMUNI1 ZMUNI2_PCT 1914.5966   
    QMUNI1 ZMUNI3_PCT 5016.7084   
    QMUNI1 ZMUNI4_PCT 3321.0754   
    QMUNI1 ZMUNI5_PCT  -48.6374   
    QMUNI1 ZMUNI6_PCT 193.0237    
    QMUNI1 ZMUNI7_PCT 1573.18115  
    QMUNI1 ZMUNI8_PCT 1322.7463   
    QMUNI1 ZMUNI9_PCT 450.7064    
    QMUNI2 OBJROW 1.          
    QMUNI2 ZMUNI1_PCT 2427.4826   
    QMUNI2 ZMUNI2_PCT 33545.8756  
    QMUNI2 ZMUNI3_PCT 3358.078    
    QMUNI2 ZMUNI4_PCT 3235.6262   
    QMUNI2 ZMUNI5_PCT 442.1235    
    QMUNI2 ZMUNI6_PCT 561.9049    
    QMUNI2 ZMUNI7_PCT 1345.82519  
    QMUNI2 ZMUNI8_PCT 1681.7093   
    QMUNI2 ZMUNI9_PCT 1786.8042   
    QMUNI3 OBJROW 1.          
    QMUNI3 ZMUNI1_PCT 5167.5797   
    QMUNI3 ZMUNI2_PCT 2950.6684   
    QMUNI3 ZMUNI3_PCT 30754.0894  
    QMUNI3 ZMUNI4_PCT 5669.0216   
    QMUNI3 ZMUNI5_PCT 72.0978     
    QMUNI3 ZMUNI6_PCT 265.1215    
    QMUNI3 ZMUNI7_PCT 1499.93896  
    QMUNI3 ZMUNI8_PCT 1494.5984   
    QMUNI3 ZMUNI9_PCT 732.6126    
    QMUNI4 OBJROW 1.          
    QMUNI4 ZMUNI1_PCT 4173.851    
    QMUNI4 ZMUNI2_PCT 3550.7203   
    QMUNI4 ZMUNI3_PCT 6789.7797   
    QMUNI4 ZMUNI4_PCT 95788.1927  
    QMUNI4 ZMUNI5_PCT 160.7895    
    QMUNI4 ZMUNI6_PCT 343.3228    
    QMUNI4 ZMUNI7_PCT 1523.97155  
    QMUNI4 ZMUNI8_PCT 1637.6496   
    QMUNI4 ZMUNI9_PCT 1272.2015   
    QMUNI5 OBJROW 1.          
    QMUNI5 ZMUNI1_PCT  -73.8144   
    QMUNI5 ZMUNI2_PCT  -227.9281  
    QMUNI5 ZMUNI3_PCT  -135.231   
    QMUNI5 ZMUNI4_PCT  -140.3809  
    QMUNI5 ZMUNI5_PCT 29310.7987  
    QMUNI5 ZMUNI6_PCT 3094.101    
    QMUNI5 ZMUNI7_PCT  -308.22754 
    QMUNI5 ZMUNI8_PCT  -551.5098  
    QMUNI5 ZMUNI9_PCT  -992.5843  
    QMUNI6 OBJROW 1.          
    QMUNI6 ZMUNI1_PCT 548.5535    
    QMUNI6 ZMUNI2_PCT 282.4784    
    QMUNI6 ZMUNI3_PCT 439.6439    
    QMUNI6 ZMUNI4_PCT 330.7342    
    QMUNI6 ZMUNI5_PCT 3103.2563   
    QMUNI6 ZMUNI6_PCT 31800.0794  
    QMUNI6 ZMUNI7_PCT 697.61276   
    QMUNI6 ZMUNI8_PCT 501.442     
    QMUNI6 ZMUNI9_PCT 403.2135    
    QMUNI7 OBJROW 1.          
    QMUNI7 ZMUNI1_PCT 1975.8225   
    QMUNI7 ZMUNI2_PCT 1066.9709   
    QMUNI7 ZMUNI3_PCT 1701.7365   
    QMUNI7 ZMUNI4_PCT 1210.022    
    QMUNI7 ZMUNI5_PCT 626.7548    
    QMUNI7 ZMUNI6_PCT 922.3938    
    QMUNI7 ZMUNI7_PCT 26206.58874 
    QMUNI7 ZMUNI8_PCT 2881.527    
    QMUNI7 ZMUNI9_PCT 1229.0954   
    QMUNI8 OBJROW 1.          
    QMUNI8 ZMUNI1_PCT 1207.3517   
    QMUNI8 ZMUNI2_PCT 805.6641    
    QMUNI8 ZMUNI3_PCT 1177.9786   
    QMUNI8 ZMUNI4_PCT 826.6449    
    QMUNI8 ZMUNI5_PCT  -83.3511   
    QMUNI8 ZMUNI6_PCT 14.1144     
    QMUNI8 ZMUNI7_PCT 1639.46151  
    QMUNI8 ZMUNI8_PCT 24677.5627  
    QMUNI8 ZMUNI9_PCT 284.9578    
    QMUNI9 OBJROW 1.          
    QMUNI9 ZMUNI1_PCT 746.1548    
    QMUNI9 ZMUNI2_PCT 983.8105    
    QMUNI9 ZMUNI3_PCT 839.9964    
    QMUNI9 ZMUNI4_PCT 686.6455    
    QMUNI9 ZMUNI5_PCT 252.533     
    QMUNI9 ZMUNI6_PCT 301.3611    
    QMUNI9 ZMUNI7_PCT 714.30206   
    QMUNI9 ZMUNI8_PCT 1296.8064   
    QMUNI9 ZMUNI9_PCT 26148.9868  
RHS
    RHS ZMUNI1_PCT  -0.3809598 
    RHS ZMUNI2_PCT  -3.45010978
    RHS ZMUNI3_PCT  -3.48161821
    RHS ZMUNI4_PCT 0.0578853661
    RHS ZMUNI5_PCT  -3.11715265
    RHS ZMUNI6_PCT  -1.74416465
    RHS ZMUNI7_PCT  -10.8660694
    RHS ZMUNI8_PCT  -11.7098596
    RHS ZMUNI9_PCT  -2.92290172
BOUNDS
 LO BOUND QMUNI1 -0.001992666
 UP BOUND QMUNI1      1.1e+10
 LO BOUND QMUNI2 -0.001395258
 UP BOUND QMUNI2      1.1e+10
 LO BOUND QMUNI3 -0.001457332
 UP BOUND QMUNI3      1.1e+10
 LO BOUND QMUNI4 -0.000582718
 UP BOUND QMUNI4      1.1e+10
 LO BOUND QMUNI5 -0.001851072
 UP BOUND QMUNI5      1.1e+10
 LO BOUND QMUNI6 -0.002082387
 UP BOUND QMUNI6      1.1e+10
 LO BOUND QMUNI7 -0.001455939
 UP BOUND QMUNI7      1.1e+10
 LO BOUND QMUNI8 -0.001681848
 UP BOUND QMUNI8      1.1e+10
 LO BOUND QMUNI9 -0.002464289
 UP BOUND QMUNI9      1.1e+10
ENDATA
